p cnf 25 144
-23 21 -22 -25 24 0
19 16 -20 -18 -17 0
-19 -20 17 16 -18 0
4 -11 -22 9 18 0
5 4 -1 -2 -3 0
25 -9 -14 19 4 0
-9 -6 -10 -7 -8 0
-12 15 -14 -13 11 0
-20 18 16 19 17 0
-1 -3 4 5 2 0
18 17 -19 -20 -16 0
-7 10 -8 6 -9 0
-2 5 4 3 -1 0
-10 -9 -6 8 -7 0
-18 -16 20 17 -19 0
-18 -19 -16 -17 -20 0
-21 24 -22 -23 25 0
20 18 17 -19 16 0
21 -24 -22 25 23 0
-8 7 -10 6 9 0
-3 -5 4 -2 -1 0
-5 4 -2 3 1 0
-11 -13 14 -15 12 0
10 6 -8 -7 9 0
-22 24 -23 21 25 0
-21 -24 25 23 -22 0
-25 -22 -21 24 23 0
-8 -6 7 10 9 0
-1 3 2 -4 5 0
11 -13 -15 12 14 0
-5 -4 -2 3 1 0
1 -3 5 -2 -4 0
13 15 14 12 11 0
6 8 -10 -7 -9 0
3 -4 -1 -5 2 0
13 -11 -12 14 15 0
-11 -15 13 14 -12 0
20 -19 -17 -18 16 0
-4 3 -5 -1 -2 0
-6 9 8 -7 10 0
-17 20 16 -19 18 0
-23 24 21 25 22 0
-19 -16 18 20 -17 0
-4 3 1 -5 2 0
-2 -1 4 3 -5 0
6 10 8 -9 7 0
2 5 1 -3 4 0
22 23 25 21 -24 0
-10 -9 8 7 -6 0
24 22 -21 25 23 0
5 -12 20 -24 -7 0
-11 15 12 -14 13 0
-9 -7 6 -8 -10 0
8 -10 7 9 -6 0
25 -22 -24 -23 21 0
24 -23 25 -21 22 0
17 18 19 -20 -16 0
-22 -23 -24 21 -25 0
-5 -1 -2 -3 -4 0
19 -20 16 17 -18 0
-16 -17 18 19 20 0
-24 23 -25 21 22 0
13 12 14 -15 -11 0
-11 -13 -14 -12 -15 0
-25 21 -23 22 24 0
-5 4 1 -3 2 0
10 -9 8 -7 6 0
25 24 23 21 -22 0
12 11 14 13 -15 0
16 18 -20 -17 19 0
8 6 -9 7 -10 0
-12 14 15 11 13 0
-1 -2 5 3 -4 0
-20 -16 18 -19 -17 0
11 -15 -12 14 -13 0
20 17 18 19 -16 0
25 22 -23 -24 21 0
-11 12 14 -13 15 0
-6 8 -7 10 -9 0
-6 -7 -10 9 8 0
-7 9 -8 6 -10 0
18 -10 -11 -23 3 0
-13 -12 14 -15 -11 0
-2 -4 -3 -1 5 0
21 23 22 -25 24 0
-4 3 1 2 5 0
19 18 -20 -17 -16 0
-24 -25 -21 -22 23 0
18 -20 17 16 -19 0
-15 -12 11 -13 -14 0
4 3 -2 5 1 0
-4 1 5 -2 3 0
7 9 10 8 -6 0
-1 -5 3 2 4 0
-13 14 15 12 11 0
-19 16 -17 18 -20 0
-13 -15 12 11 -14 0
23 24 21 25 22 0
-25 -24 23 -21 22 0
2 -1 -4 -3 5 0
-5 1 -4 -2 -3 0
16 20 19 -17 -18 0
15 -13 -14 12 -11 0
-22 24 -21 -23 -25 0
14 -15 11 13 -12 0
11 15 -14 -12 13 0
-8 10 6 -9 7 0
16 -21 8 13 1 0
17 18 -16 -19 20 0
-23 -24 21 22 -25 0
20 18 16 19 -17 0
17 -18 -20 19 -16 0
15 -14 11 12 -13 0
-21 -25 23 22 24 0
22 23 -21 -24 25 0
20 16 17 -19 -18 0
12 14 15 13 -11 0
-8 -7 -9 -6 10 0
-21 -22 25 -24 -23 0
23 15 16 -7 4 0
-19 -18 -17 20 -16 0
-14 -15 13 -11 12 0
-20 -17 -18 -16 19 0
-9 10 -6 8 7 0
-22 -24 -23 -25 -21 0
-10 -7 6 8 9 0
23 -22 24 21 -25 0
-10 -8 7 -6 -9 0
22 -25 -21 -23 -24 0
-3 -9 -15 -25 -19 0
5 -3 1 -4 2 0
10 9 -7 8 6 0
15 -13 -11 -14 -12 0
14 -12 11 15 -13 0
-21 25 23 24 -22 0
11 12 15 -14 13 0
-9 -10 7 6 -8 0
12 -14 -11 -15 -13 0
-19 16 -17 -18 -20 0
19 -18 20 -16 17 0
-25 -24 23 21 -22 0
-14 8 18 5 -23 0
-11 1 -6 -21 19 0
-3 -4 1 -5 2 0
